c ---- [ banner ] ------------------------------------------------------------
c
c KISSAT SAT Solver
c Copyright (c) 2019-2021 Armin Biere JKU Linz
c 
c Version 2.0.1 02cd69626a53e93e09286b1978ccb5d6bec58b8e
c Apple clang version 13.1.6 (clang-1316.0.21.2) -W -Wall -O3 -DNDEBUG
c Thu Mar 31 15:34:51 EDT 2022 Darwin Randals-Macbook-Pro.local 21.2.0 arm64
c
c ---- [ proving ] -----------------------------------------------------------
c
c opened and writing proof to DRAT file:
c
c   chew-34-123457.drat
c
c ---- [ parsing ] -----------------------------------------------------------
c
c opened and reading DIMACS file:
c
c   chew-34-123457.cnf
c
c parsed 'p cnf 96 256' header
c closing input after reading 3141 bytes (3 KB)
c finished parsing after 0.00 seconds
c
c ---- [ options ] -----------------------------------------------------------
c
c --stable=0                       (different from default '1')
c
c ---- [ solving ] -----------------------------------------------------------
c
c  seconds switched rate      trail  variables
c         MB reductions conflicts glue   remaining
c          level restarts redundant irredundant
c
c *  0.00  0 0 0 0  0 0   0   0 0% 0 256 96 99%
c {  0.00  0 0 0 0  0 0   0   0 0% 0 256 96 99%
c -  0.00  0 29 0 1  0 1 300  41 91% 26 256 96 99%
c -  0.01  0 28 0 2  0 1 1301 115 86% 25 256 96 99%
c -  0.02  0 26 0 3  0 1 2715  49 83% 25 256 96 99%
c e  0.03  0 26 0 3  0 1 2941  57 83% 25 248 64 66%
c e  0.03  0 26 0 3  0 1 2941  57 83% 25 248 63 65%
c -  0.03  0 26 0 4  0 1 4447 171 82% 22 248 63 65%
c u  0.03  0 26 0 4  0 1 4620 233 82% 21 248 63 65%
c ^  0.04  0 26 0 4  0 1 5850 810 82% 20 248 63 65%
c -  0.04  0 25 0 5  0 1 6448 376 80% 19 248 63 65%
c -  0.05  0 24 0 6  0 1 8685 544 76% 17 248 63 65%
c u  0.06  0 23 0 6  0 1 10553 1235 73% 16 248 63 65%
c -  0.07  0 23 0 7  0 1 11136 656 73% 16 248 63 65%
c ^  0.07  0 23 0 7  0 1 12155 1026 71% 15 248 63 65%
c -  0.08  0 22 0 8  0 1 13782 942 70% 14 248 63 65%
c u  0.09  0 22 0 8  0 1 14662 1284 69% 14 248 63 65%
c -  0.10  0 22 0 9  0 1 16611 1090 67% 14 248 63 65%
c u  0.11  0 21 0 9  0 1 19584 2313 64% 13 248 63 65%
c -  0.12  0 21 0 10  0 1 19611 994 64% 13 248 63 65%
c
c  seconds  switched  rate          trail   variables
c         MB  reductions conflicts      glue    remaining
c          level  restarts   redundant  irredundant
c
c ^  0.13  0 20 0 10  0 1 22311 2125 63% 13 248 63 65%
c -  0.13  0 20 0 11  0 1 22774 1251 63% 13 248 63 65%
c u  0.15  0 20 0 11  0 1 25351 2374 62% 13 248 63 65%
c -  0.15  0 20 0 12  0 1 26090 1392 61% 12 248 63 65%
c -  0.18  0 19 0 13  0 1 29555 959 57% 12 248 63 65%
c u  0.19  0 18 0 13  0 1 31917 1771 56% 12 248 63 65%
c -  0.20  0 18 0 14  0 1 33160 1331 56% 12 248 63 65%
c e  0.21  0 18 0 14  0 1 36742 2451 56% 11 256 61 63%
c ^  0.21  0 18 0 14  0 1 36742 2451 56% 11 256 61 63%
c -  0.22  0 18 0 15  0 1 36901 231 56% 11 256 61 63%
c u  0.23  0 19 0 15  0 1 39365 874 57% 11 256 61 63%
c -  0.24  0 19 0 16  0 1 40777 684 58% 11 256 61 63%
c -  0.26  0 19 0 17  0 1 44779 991 58% 11 256 61 63%
c u  0.28  0 18 0 17  0 1 47785 2423 57% 11 256 61 63%
c -  0.28  0 18 0 18  0 1 48902 952 57% 11 256 61 63%
c -  0.31  0 18 0 19 328 1 53145 764 55% 11 256 61 63%
c ^  0.33  0 18 0 19 328 1 56053 1323 54% 11 256 61 63%
c u  0.33  0 17 0 19 328 1 57188 1438 54% 11 256 61 63%
c -  0.34  0 17 0 20 328 1 57503 617 54% 11 256 61 63%
c -  0.36  0 17 0 21 328 1 61976 780 53% 11 256 61 63%
c
c  seconds  switched   rate         trail   variables
c         MB  reductions conflicts      glue    remaining
c          level  restarts    redundant irredundant
c
c -  0.39  0 17 0 22 328 1 66559 983 52% 11 256 61 63%
c u  0.39  0 17 0 22 328 1 67582 1057 52% 11 256 61 63%
c -  0.42  0 16 0 23 443 1 71250 759 51% 11 256 61 63%
c -  0.45  0 16 0 24 580 1 76045 856 50% 10 256 61 63%
c u  0.46  0 16 0 24 768 1 78891 916 50% 10 256 61 63%
c e  0.47  0 16 0 24 866 1 80449 994 50% 10 480 47 48%
c !  0.47  0 16 0 24 866 1 80449 994 50% 10 480 47 48%
c -  0.48  0 16 0 25 866 1 80943  81 50% 10 480 47 48%
c -  0.50  0 16 0 26 1181 1 85945 1113 51% 10 480 47 48%
c -  0.53  0 16 0 27 1889 2 91046 1823 52% 10 480 47 48%
c u  0.53  0 16 0 27 1889 2 91139 1753 52% 10 480 47 48%
c -  0.56  0 16 0 28 2606 2 96242 1763 51% 11 480 47 48%
c -  0.60  0 16 0 29 4056 2 101533 1631 51% 11 480 47 48%
c -  0.63  0 16 0 30 4146 2 106918 1323 51% 11 480 47 48%
c u  0.64  0 16 0 30 4146 2 107437 1331 51% 11 480 47 48%
c v  0.64  0 16 0 30 4146 2 107439 1329 51% 11 480 47 48%
c -  0.67  0 15 0 31 4146 2 112396 1262 51% 10 480 47 48%
c -  0.70  0 15 0 32 4146 2 117964 1459 50% 10 480 47 48%
c -  0.74  0 15 0 33 4146 2 123621 1934 51% 10 480 47 48%
c u  0.75  0 15 0 33 4146 2 124898 1420 51% 10 480 47 48%
c
c  seconds  switched    rate           trail   variables
c         MB  reductions  conflicts        glue    remaining
c          level   restarts     redundant  irredundant
c
c -  0.79  0 15 0 34 4146 2 129366 1396 51% 10 480 47 48%
c -  0.82  0 14 0 35 4286 2 135198 1877 51% 10 480 47 48%
c -  0.86  0 14 0 36 5479 2 141114 2006 51% 10 480 47 48%
c u  0.87  0 14 0 36 5479 2 143819 2796 51% 10 480 47 48%
c -  0.90  0 14 0 37 5649 2 147114 1982 51% 10 480 47 48%
c -  0.93  0 14 0 38 5649 2 153196 2737 51% 10 480 47 48%
c -  0.97  0 14 0 39 5649 2 159360 3156 51% 10 480 47 48%
c v  0.99  0 14 0 39 5649 2 163714 4883 51% 10 480 47 48%
c -  1.01  0 14 0 40 6148 2 165605 3430 50% 10 480 47 48%
c -  1.05  0 14 0 41 6312 2 171929 2827 50% 10 480 47 48%
c -  1.09  0 14 0 42 6329 2 178332 2678 50% 10 480 47 48%
c -  1.13  0 13 0 43 6329 2 184812 2663 50% 10 480 47 48%
c u  1.14  0 13 0 43 6329 2 185198 1566 50% 10 480 47 48%
c v  1.14  0 13 0 43 6329 2 185199 1550 50% 10 480 47 48%
c -  1.17  0 13 0 44 6329 2 191370 2302 50% 9 480 47 48%
c -  1.21  0 13 0 45 6329 2 198003 3520 50% 9 480 47 48%
c i  1.23  0 13 0 45 6329 2 201921 4268 50% 9 480 46 47%
c -  1.25  0 13 0 46 6329 2 204712 1342 49% 9 480 46 47%
c u  1.27  0 13 0 46 6329 2 207672 1862 49% 9 448 46 47%
c v  1.27  0 13 0 46 6329 2 207672 1860 49% 9 448 46 47%
c
c  seconds  switched    rate           trail  variables
c         MB  reductions  conflicts       glue    remaining
c          level   restarts     redundant irredundant
c
c -  1.29  0 12 0 47 6329 2 211496 2157 49% 9 448 46 47%
c -  1.33  0 12 0 48 6329 2 218351 2847 48% 9 448 46 47%
c -  1.37  0 12 0 49 6329 2 225279 3346 48% 9 448 46 47%
c i  1.39  0 12 0 49 6329 2 228684 3666 48% 9 448 45 46%
c u  1.41  0 12 0 49 6329 2 230973 1590 48% 9 424 45 46%
c v  1.41  0 12 0 49 6329 2 230975 1579 48% 9 424 45 46%
c -  1.42  0 12 0 50 6329 2 232279 1586 48% 9 424 45 46%
c -  1.45  0 12 0 51 6329 2 239351 2650 48% 8 424 45 46%
c i  1.46  0 12 0 51 6329 2 241506 2777 47% 8 424 44 45%
c -  1.49  0 11 0 52 6329 1 246494 2196 47% 8 424 44 45%
c i  1.50  0 11 0 52 6329 1 248428 2461 47% 8 424 43 44%
c e  1.51  0 11 0 52 6329 1 250549 2746 47% 8 400 42 43%
c i  1.52  0 11 0 52 6329 1 250582 1363 47% 8 400 41 42%
c i  1.52  0 11 0 52 6329 1 252207 1702 46% 8 400 40 41%
c i  1.53  0 11 0 52 6329 1 252816 1796 46% 8 400 39 40%
c i  1.53  0 11 0 52 6329 1 253139 1832 46% 8 400 38 39%
c i  1.53  0 11 0 52 6329 1 253296 1857 46% 8 400 36 37%
c i  1.53  0 11 0 52 6329 1 253357 1852 46% 8 400 35 36%
c i  1.53  0 11 0 52 6329 1 253391 1850 46% 8 400 34 35%
c i  1.53  0 11 0 52 6329 1 253403 1852 46% 8 400 33 34%
c
c  seconds  switched    rate           trail  variables
c         MB  reductions  conflicts       glue    remaining
c          level   restarts     redundant irredundant
c
c i  1.53  0 11 0 52 6329 1 253408 1854 46% 8 400 32 33%
c i  1.53  0 11 0 52 6329 1 253410 1854 46% 8 400 30 31%
c }  1.53  0 11 0 52 6329 1 253412 1854 46% 8 400 27 28%
c 0  1.53  0 11 0 52 6329 1 253412 1854 46% 8 400 27 28%
c
c ---- [ result ] ------------------------------------------------------------
c
s UNSATISFIABLE
c
c ---- [ profiling ] ---------------------------------------------------------
c
c           1.46   95.40 %  search
c           1.46   95.40 %  focused
c           0.12    8.15 %  reduce
c           0.07    4.57 %  simplify
c           0.06    3.74 %  probe
c           0.04    2.48 %  vivify
c           0.01    0.83 %  eliminate
c           0.01    0.70 %  substitute
c           0.01    0.48 %  sweep
c           0.00    0.04 %  transitive
c           0.00    0.03 %  subsume
c           0.00    0.01 %  ternary
c           0.00    0.01 %  failed
c           0.00    0.01 %  backbone
c           0.00    0.01 %  parse
c =============================================
c           1.53  100.00 %  total
c
c ---- [ statistics ] --------------------------------------------------------
c
c clauses_learned:                     201507               80 %  conflicts
c conflicts:                           253412           165742.18 per second
c decisions:                           324940                1.28 per conflict
c forward_strengthened:                     8                2 %  strengthened
c kitten_conflicts:                      2908                1.21 per solved
c kitten_decisions:                     48017               19.90 per solved
c kitten_propagations:                  68758               28.49 per solved
c kitten_sat:                            2291               95 %  solved
c kitten_solved:                         2413 
c kitten_ticks:                        422268                6.14 per propagation
c kitten_unknown:                          26                1 %  solved
c kitten_unsat:                            96                4 %  solved
c literals_bumped:                    5068116               25.15 per clause
c literals_deduced:                   3110044               15.43 per clause
c literals_learned:                   2337184               11.60 per clause
c literals_minimized:                       0                0 %  deduced
c literals_minimize_shrunken:           32142                4 %  shrunken
c literals_shrunken:                   772875               25 %  deduced
c propagations:                       1197073           782936    per second
c reductions:                              52             4873    interval
c restarts:                              6329               40.04 interval
c restarts_reused_trails:                5313               84 %  restarts
c strengthened:                           533                1 %  checks
c subsumption_checks:                   96543 
c subsumed:                            132241              137 %  checks
c sweep:                                   23            11018    interval
c sweep_completed:                          4                6    sweeps
c sweep_equivalences:                       0                0    variables
c sweep_sat:                             2291               99 %  sweep_solved
c sweep_solved:                          2317               96 %  kitten_solved
c sweep_units:                              0                0 %  variables
c sweep_unsat:                              0                0 %  sweep_solved
c sweep_variables:                        182              188 %  variables
c
c ---- [ proof ] -------------------------------------------------------------
c
c proof_added:                         242803               50 %  per line
c proof_bytes:                       21586217               21 MB 
c proof_deleted:                       240785               50 %  per line
c
c ---- [ resources ] ---------------------------------------------------------
c
c maximum-resident-set-size:       5939134464 bytes       5664 MB
c process-time:                             2s               1.53 seconds
c
c ---- [ shutting down ] -----------------------------------------------------
c
c exit 20
-rw-r--r--  1 bryant  staff  21586217 Mar 11 03:17 chew-34-123457.drat
c parsing input formula with 96 variables and 256 clauses
c finished parsing
c detected empty clause; start verification via backward checking
c 256 of 256 clauses in core                            
c 148992 of 242804 lemmas in core using 1264089 resolution steps
c 0 RAT lemmas in core; 110 redundant literals in core lemmas
s VERIFIED
c verification time: 1.098 seconds
